instances/knapsack/knapsack_interdiction/knapsack_60_1_2.kp
42
60
9650

141 14.0 241 42.67
926 93.0 1026 142.72
686 69.0 786 79.13
706 71.0 806 90.68
728 73.0 828 150.51
616 62.0 716 136.93
349 35.0 449 49.61
712 71.0 812 93.14
530 53.0 630 67.81
873 87.0 973 170.62
635 64.0 735 100.6
933 93.0 1033 109.59
331 33.0 431 51.85
881 88.0 981 123.3
253 25.0 353 70.08
191 19.0 291 56.66
851 85.0 951 111.42
94 9.0 194 25.2
948 95.0 1048 109.07
182 18.0 282 40.76
57 6.0 157 19.53
151 15.0 251 49.23
245 24.0 345 64.23
583 58.0 683 70.97
362 36.0 462 47.97
755 76.0 855 152.67
246 25.0 346 38.89
454 45.0 554 64.44
362 36.0 462 72.14
807 81.0 907 121.71
86 9.0 186 19.94
728 73.0 828 134.39
523 52.0 623 96.04
334 33.0 434 78.7
114 11.0 214 23.43
190 19.0 290 49.94
471 47.0 571 83.42
146 15.0 246 44.02
296 30.0 396 58.5
405 40.0 505 57.17
171 17.0 271 33.05
361 36.0 461 52.95
673 67.0 773 143.82
691 69.0 791 93.54
874 87.0 974 149.81
252 25.0 352 36.31
128 13.0 228 33.34
940 94.0 1040 126.06
826 83.0 926 133.56
41 4.0 141 14.98
490 49.0 590 63.24
906 91.0 1006 113.62
216 22.0 316 53.69
200 20.0 300 33.7
417 42.0 517 76.09
699 70.0 799 124.75
771 77.0 871 123.5
482 48.0 582 106.52
169 17.0 269 39.77
764 76.0 864 102.65

42
[11514]

[[28, 43, 154, 57, 35, 148, 77, 191, 93, 125, 115, 4, 63, 157, 84, 45, 80, 178, 32, 145, 23, 128, 134, 126, 147, 179, 82, 50, 40, 41, 100, 20, 4, 21, 39, 11, 123, 116, 178, 53, 118, 125, 61, 14, 135, 164, 58, 43, 55, 149, 81, 13, 23, 70, 64, 14, 136, 25, 101, 71]]

[[923, 836, 980, 768, 278, 238, 931, 934, 192, 519, 489, 723, 649, 695, 899, 629, 737, 932, 258, 844, 271, 549, 363, 213, 496, 545, 724, 332, 912, 677, 60, 982, 481, 900, 160, 28, 757, 816, 838, 875, 289, 119, 911, 481, 72, 466, 846, 986, 248, 575, 304, 312, 454, 598, 327, 881, 201, 992, 855, 194]]
